\ENCODING=ISO-8859-1
\Problem name: IloCplex

Minimize
 obj: 13.8924436569214 x_0_1 + 21.023796081543 x_0_2 + 32.5576400756836 x_0_3
      + 22.0227146148682 x_0_4 + 23.0867919921875 x_0_5
      + 12.0415945053101 x_0_6 + 22.0227146148682 x_0_7
      + 32.4499626159668 x_0_8 + 32.0624389648438 x_0_9
      + 20.8086528778076 x_0_10 + 28.1602554321289 x_0_11
      + 29.9666481018066 x_0_12 + 29.1204395294189 x_0_13
      + 30.870698928833 x_0_14 + 29.8328685760498 x_0_15
      + 13.8924436569214 x_1_0 + 21.023796081543 x_2_0 + 32.5576400756836 x_3_0
      + 22.0227146148682 x_4_0 + 23.0867919921875 x_5_0
      + 12.0415945053101 x_6_0 + 22.0227146148682 x_7_0
      + 32.4499626159668 x_8_0 + 32.0624389648438 x_9_0
      + 20.8086528778076 x_10_0 + 28.1602554321289 x_11_0
      + 29.9666481018066 x_12_0 + 29.1204395294189 x_13_0
      + 30.870698928833 x_14_0 + 29.8328685760498 x_15_0
      + 12.3693170547485 x_1_2 + 19.2093734741211 x_1_3
      + 11.6619033813477 x_1_4 + 24.2074375152588 x_1_5
      + 12.0830459594727 x_1_6 + 18.6010761260986 x_1_7
      + 20.8806133270264 x_1_8 + 26.9258232116699 x_1_9
      + 7.07106781005859 x_1_10 + 18.8679618835449 x_1_11
      + 16.1554946899414 x_1_12 + 21.3775577545166 x_1_13
      + 32.6496543884277 x_1_14 + 17 x_1_15 + 12.3693170547485 x_2_1
      + 15.2970581054688 x_2_3 + 22.2036037445068 x_2_4
      + 16.2788200378418 x_2_5 + 10.6301460266113 x_2_6 + 8.5440034866333 x_2_7
      + 12.0415945053101 x_2_8 + 14.7648229598999 x_2_9
      + 10.6301460266113 x_2_10 + 29.068883895874 x_2_11
      + 18.9736652374268 x_2_12 + 9.05538558959961 x_2_13
      + 23.7697277069092 x_2_14 + 23.3238067626953 x_2_15
      + 19.2093734741211 x_3_1 + 15.2970581054688 x_3_2
      + 21.0950222015381 x_3_4 + 31 x_3_5 + 25.0798721313477 x_3_6 + 23 x_3_7
      + 7.81024980545044 x_3_8 + 24.1660919189453 x_3_9
      + 12.2065553665161 x_3_10 + 25.3179779052734 x_3_11
      + 9.48683261871338 x_3_12 + 17.0880069732666 x_3_13
      + 37.4833297729492 x_3_14 + 15.8113880157471 x_3_15
      + 11.6619033813477 x_4_1 + 22.2036037445068 x_4_2
      + 21.0950222015381 x_4_3 + 35.8050270080566 x_4_5
      + 23.7065391540527 x_4_6 + 29.6984844207764 x_4_7
      + 26.3058929443359 x_4_8 + 36.8917350769043 x_4_9
      + 12.0830459594727 x_4_10 + 7.21110248565674 x_4_11 + 13 x_4_12
      + 30.4138126373291 x_4_13 + 44.2040710449219 x_4_14
      + 9.21954441070557 x_4_15 + 24.2074375152588 x_5_1
      + 16.2788200378418 x_5_2 + 31 x_5_3 + 35.8050270080566 x_5_4
      + 12.806248664856 x_5_6 + 8 x_5_7 + 25.4950981140137 x_5_8
      + 13.4536237716675 x_5_9 + 26 x_5_10 + 43.0116271972656 x_5_11
      + 35.1710090637207 x_5_12 + 16.1554946899414 x_5_13
      + 8.48528099060059 x_5_14 + 39 x_5_15 + 12.0830459594727 x_6_1
      + 10.6301460266113 x_6_2 + 25.0798721313477 x_6_3
      + 23.7065391540527 x_6_4 + 12.806248664856 x_6_5 + 10 x_6_7
      + 22.6715679168701 x_6_8 + 20.0249843597412 x_6_9 + 16 x_6_10
      + 30.886890411377 x_6_11 + 26.0192241668701 x_6_12
      + 17.4642486572266 x_6_13 + 21.2602920532227 x_6_14
      + 28.4429244995117 x_6_15 + 18.6010761260986 x_7_1
      + 8.5440034866333 x_7_2 + 23 x_7_3 + 29.6984844207764 x_7_4 + 8 x_7_5
      + 10 x_7_6 + 17.7200450897217 x_7_8 + 10.0498752593994 x_7_9
      + 18.8679618835449 x_7_10 + 36.7967376708984 x_7_11
      + 27.5136337280273 x_7_12 + 9.21954441070557 x_7_13
      + 15.2315464019775 x_7_14 + 31.7647609710693 x_7_15
      + 20.8806133270264 x_8_1 + 12.0415945053101 x_8_2
      + 7.81024980545044 x_8_3 + 26.3058929443359 x_8_4
      + 25.4950981140137 x_8_5 + 22.6715679168701 x_8_6
      + 17.7200450897217 x_8_7 + 16.763053894043 x_8_9 + 15.033296585083 x_8_10
      + 31.6227760314941 x_8_11 + 16.6433162689209 x_8_12
      + 10.0498752593994 x_8_13 + 31.0161247253418 x_8_14
      + 22.8254241943359 x_8_15 + 26.9258232116699 x_9_1
      + 14.7648229598999 x_9_2 + 24.1660919189453 x_9_3
      + 36.8917350769043 x_9_4 + 13.4536237716675 x_9_5
      + 20.0249843597412 x_9_6 + 10.0498752593994 x_9_7 + 16.763053894043 x_9_8
      + 25 x_9_10 + 43.6004600524902 x_9_11 + 31.4006366729736 x_9_12
      + 7.21110248565674 x_9_13 + 15.5241746902466 x_9_14
      + 36.7967376708984 x_9_15 + 7.07106781005859 x_10_1
      + 10.6301460266113 x_10_2 + 12.2065553665161 x_10_3
      + 12.0830459594727 x_10_4 + 26 x_10_5 + 16 x_10_6
      + 18.8679618835449 x_10_7 + 15.033296585083 x_10_8 + 25 x_10_9
      + 18.6010761260986 x_10_11 + 10.0498752593994 x_10_12
      + 18.3575592041016 x_10_13 + 34 x_10_14 + 13 x_10_15
      + 18.8679618835449 x_11_1 + 29.068883895874 x_11_2
      + 25.3179779052734 x_11_3 + 7.21110248565674 x_11_4
      + 43.0116271972656 x_11_5 + 30.886890411377 x_11_6
      + 36.7967376708984 x_11_7 + 31.6227760314941 x_11_8
      + 43.6004600524902 x_11_9 + 18.6010761260986 x_11_10
      + 16.0312194824219 x_11_12 + 36.8917350769043 x_11_13
      + 51.400390625 x_11_14 + 10.0498752593994 x_11_15
      + 16.1554946899414 x_12_1 + 18.9736652374268 x_12_2
      + 9.48683261871338 x_12_3 + 13 x_12_4 + 35.1710090637207 x_12_5
      + 26.0192241668701 x_12_6 + 27.5136337280273 x_12_7
      + 16.6433162689209 x_12_8 + 31.4006366729736 x_12_9
      + 10.0498752593994 x_12_10 + 16.0312194824219 x_12_11
      + 24.2074375152588 x_12_13 + 42.7200202941895 x_12_14
      + 6.32455539703369 x_12_15 + 21.3775577545166 x_13_1
      + 9.05538558959961 x_13_2 + 17.0880069732666 x_13_3
      + 30.4138126373291 x_13_4 + 16.1554946899414 x_13_5
      + 17.4642486572266 x_13_6 + 9.21954441070557 x_13_7
      + 10.0498752593994 x_13_8 + 7.21110248565674 x_13_9
      + 18.3575592041016 x_13_10 + 36.8917350769043 x_13_11
      + 24.2074375152588 x_13_12 + 21 x_13_14 + 29.6984844207764 x_13_15
      + 32.6496543884277 x_14_1 + 23.7697277069092 x_14_2
      + 37.4833297729492 x_14_3 + 44.2040710449219 x_14_4
      + 8.48528099060059 x_14_5 + 21.2602920532227 x_14_6
      + 15.2315464019775 x_14_7 + 31.0161247253418 x_14_8
      + 15.5241746902466 x_14_9 + 34 x_14_10 + 51.400390625 x_14_11
      + 42.7200202941895 x_14_12 + 21 x_14_13 + 46.9574279785156 x_14_15
      + 17 x_15_1 + 23.3238067626953 x_15_2 + 15.8113880157471 x_15_3
      + 9.21954441070557 x_15_4 + 39 x_15_5 + 28.4429244995117 x_15_6
      + 31.7647609710693 x_15_7 + 22.8254241943359 x_15_8
      + 36.7967376708984 x_15_9 + 13 x_15_10 + 10.0498752593994 x_15_11
      + 6.32455539703369 x_15_12 + 29.6984844207764 x_15_13
      + 46.9574279785156 x_15_14
Subject To
 CstDepDegOut_0:     x_0_1 + x_0_2 + x_0_3 + x_0_4 + x_0_5 + x_0_6 + x_0_7
                     + x_0_8 + x_0_9 + x_0_10 + x_0_11 + x_0_12 + x_0_13
                     + x_0_14 + x_0_15 <= 8
 CstDepDegIn_0:      x_1_0 + x_2_0 + x_3_0 + x_4_0 + x_5_0 + x_6_0 + x_7_0
                     + x_8_0 + x_9_0 + x_10_0 + x_11_0 + x_12_0 + x_13_0
                     + x_14_0 + x_15_0 <= 8
 CstDegOut_1:        x_1_0 + x_1_2 + x_1_3 + x_1_4 + x_1_5 + x_1_6 + x_1_7
                     + x_1_8 + x_1_9 + x_1_10 + x_1_11 + x_1_12 + x_1_13
                     + x_1_14 + x_1_15  = 1
 CstDegOut_2:        x_2_0 + x_2_1 + x_2_3 + x_2_4 + x_2_5 + x_2_6 + x_2_7
                     + x_2_8 + x_2_9 + x_2_10 + x_2_11 + x_2_12 + x_2_13
                     + x_2_14 + x_2_15  = 1
 CstDegOut_3:        x_3_0 + x_3_1 + x_3_2 + x_3_4 + x_3_5 + x_3_6 + x_3_7
                     + x_3_8 + x_3_9 + x_3_10 + x_3_11 + x_3_12 + x_3_13
                     + x_3_14 + x_3_15  = 1
 CstDegOut_4:        x_4_0 + x_4_1 + x_4_2 + x_4_3 + x_4_5 + x_4_6 + x_4_7
                     + x_4_8 + x_4_9 + x_4_10 + x_4_11 + x_4_12 + x_4_13
                     + x_4_14 + x_4_15  = 1
 CstDegOut_5:        x_5_0 + x_5_1 + x_5_2 + x_5_3 + x_5_4 + x_5_6 + x_5_7
                     + x_5_8 + x_5_9 + x_5_10 + x_5_11 + x_5_12 + x_5_13
                     + x_5_14 + x_5_15  = 1
 CstDegOut_6:        x_6_0 + x_6_1 + x_6_2 + x_6_3 + x_6_4 + x_6_5 + x_6_7
                     + x_6_8 + x_6_9 + x_6_10 + x_6_11 + x_6_12 + x_6_13
                     + x_6_14 + x_6_15  = 1
 CstDegOut_7:        x_7_0 + x_7_1 + x_7_2 + x_7_3 + x_7_4 + x_7_5 + x_7_6
                     + x_7_8 + x_7_9 + x_7_10 + x_7_11 + x_7_12 + x_7_13
                     + x_7_14 + x_7_15  = 1
 CstDegOut_8:        x_8_0 + x_8_1 + x_8_2 + x_8_3 + x_8_4 + x_8_5 + x_8_6
                     + x_8_7 + x_8_9 + x_8_10 + x_8_11 + x_8_12 + x_8_13
                     + x_8_14 + x_8_15  = 1
 CstDegOut_9:        x_9_0 + x_9_1 + x_9_2 + x_9_3 + x_9_4 + x_9_5 + x_9_6
                     + x_9_7 + x_9_8 + x_9_10 + x_9_11 + x_9_12 + x_9_13
                     + x_9_14 + x_9_15  = 1
 CstDegOut_10:       x_10_0 + x_10_1 + x_10_2 + x_10_3 + x_10_4 + x_10_5
                     + x_10_6 + x_10_7 + x_10_8 + x_10_9 + x_10_11 + x_10_12
                     + x_10_13 + x_10_14 + x_10_15  = 1
 CstDegOut_11:       x_11_0 + x_11_1 + x_11_2 + x_11_3 + x_11_4 + x_11_5
                     + x_11_6 + x_11_7 + x_11_8 + x_11_9 + x_11_10 + x_11_12
                     + x_11_13 + x_11_14 + x_11_15  = 1
 CstDegOut_12:       x_12_0 + x_12_1 + x_12_2 + x_12_3 + x_12_4 + x_12_5
                     + x_12_6 + x_12_7 + x_12_8 + x_12_9 + x_12_10 + x_12_11
                     + x_12_13 + x_12_14 + x_12_15  = 1
 CstDegOut_13:       x_13_0 + x_13_1 + x_13_2 + x_13_3 + x_13_4 + x_13_5
                     + x_13_6 + x_13_7 + x_13_8 + x_13_9 + x_13_10 + x_13_11
                     + x_13_12 + x_13_14 + x_13_15  = 1
 CstDegOut_14:       x_14_0 + x_14_1 + x_14_2 + x_14_3 + x_14_4 + x_14_5
                     + x_14_6 + x_14_7 + x_14_8 + x_14_9 + x_14_10 + x_14_11
                     + x_14_12 + x_14_13 + x_14_15  = 1
 CstDegOut_15:       x_15_0 + x_15_1 + x_15_2 + x_15_3 + x_15_4 + x_15_5
                     + x_15_6 + x_15_7 + x_15_8 + x_15_9 + x_15_10 + x_15_11
                     + x_15_12 + x_15_13 + x_15_14  = 1
 CstDegInt_1:        x_0_1 + x_2_1 + x_3_1 + x_4_1 + x_5_1 + x_6_1 + x_7_1
                     + x_8_1 + x_9_1 + x_10_1 + x_11_1 + x_12_1 + x_13_1
                     + x_14_1 + x_15_1  = 1
 CstDegInt_2:        x_0_2 + x_1_2 + x_3_2 + x_4_2 + x_5_2 + x_6_2 + x_7_2
                     + x_8_2 + x_9_2 + x_10_2 + x_11_2 + x_12_2 + x_13_2
                     + x_14_2 + x_15_2  = 1
 CstDegInt_3:        x_0_3 + x_1_3 + x_2_3 + x_4_3 + x_5_3 + x_6_3 + x_7_3
                     + x_8_3 + x_9_3 + x_10_3 + x_11_3 + x_12_3 + x_13_3
                     + x_14_3 + x_15_3  = 1
 CstDegInt_4:        x_0_4 + x_1_4 + x_2_4 + x_3_4 + x_5_4 + x_6_4 + x_7_4
                     + x_8_4 + x_9_4 + x_10_4 + x_11_4 + x_12_4 + x_13_4
                     + x_14_4 + x_15_4  = 1
 CstDegInt_5:        x_0_5 + x_1_5 + x_2_5 + x_3_5 + x_4_5 + x_6_5 + x_7_5
                     + x_8_5 + x_9_5 + x_10_5 + x_11_5 + x_12_5 + x_13_5
                     + x_14_5 + x_15_5  = 1
 CstDegInt_6:        x_0_6 + x_1_6 + x_2_6 + x_3_6 + x_4_6 + x_5_6 + x_7_6
                     + x_8_6 + x_9_6 + x_10_6 + x_11_6 + x_12_6 + x_13_6
                     + x_14_6 + x_15_6  = 1
 CstDegInt_7:        x_0_7 + x_1_7 + x_2_7 + x_3_7 + x_4_7 + x_5_7 + x_6_7
                     + x_8_7 + x_9_7 + x_10_7 + x_11_7 + x_12_7 + x_13_7
                     + x_14_7 + x_15_7  = 1
 CstDegInt_8:        x_0_8 + x_1_8 + x_2_8 + x_3_8 + x_4_8 + x_5_8 + x_6_8
                     + x_7_8 + x_9_8 + x_10_8 + x_11_8 + x_12_8 + x_13_8
                     + x_14_8 + x_15_8  = 1
 CstDegInt_9:        x_0_9 + x_1_9 + x_2_9 + x_3_9 + x_4_9 + x_5_9 + x_6_9
                     + x_7_9 + x_8_9 + x_10_9 + x_11_9 + x_12_9 + x_13_9
                     + x_14_9 + x_15_9  = 1
 CstDegInt_10:       x_0_10 + x_1_10 + x_2_10 + x_3_10 + x_4_10 + x_5_10
                     + x_6_10 + x_7_10 + x_8_10 + x_9_10 + x_11_10 + x_12_10
                     + x_13_10 + x_14_10 + x_15_10  = 1
 CstDegInt_11:       x_0_11 + x_1_11 + x_2_11 + x_3_11 + x_4_11 + x_5_11
                     + x_6_11 + x_7_11 + x_8_11 + x_9_11 + x_10_11 + x_12_11
                     + x_13_11 + x_14_11 + x_15_11  = 1
 CstDegInt_12:       x_0_12 + x_1_12 + x_2_12 + x_3_12 + x_4_12 + x_5_12
                     + x_6_12 + x_7_12 + x_8_12 + x_9_12 + x_10_12 + x_11_12
                     + x_13_12 + x_14_12 + x_15_12  = 1
 CstDegInt_13:       x_0_13 + x_1_13 + x_2_13 + x_3_13 + x_4_13 + x_5_13
                     + x_6_13 + x_7_13 + x_8_13 + x_9_13 + x_10_13 + x_11_13
                     + x_12_13 + x_14_13 + x_15_13  = 1
 CstDegInt_14:       x_0_14 + x_1_14 + x_2_14 + x_3_14 + x_4_14 + x_5_14
                     + x_6_14 + x_7_14 + x_8_14 + x_9_14 + x_10_14 + x_11_14
                     + x_12_14 + x_13_14 + x_15_14  = 1
 CstDegInt_15:       x_0_15 + x_1_15 + x_2_15 + x_3_15 + x_4_15 + x_5_15
                     + x_6_15 + x_7_15 + x_8_15 + x_9_15 + x_10_15 + x_11_15
                     + x_12_15 + x_13_15 + x_14_15  = 1
 CstOpposites_0_1:   x_0_1 + x_1_0 <= 1
 CstOpposites_0_2:   x_0_2 + x_2_0 <= 1
 CstOpposites_0_3:   x_0_3 + x_3_0 <= 1
 CstOpposites_0_4:   x_0_4 + x_4_0 <= 1
 CstOpposites_0_5:   x_0_5 + x_5_0 <= 1
 CstOpposites_0_6:   x_0_6 + x_6_0 <= 1
 CstOpposites_0_7:   x_0_7 + x_7_0 <= 1
 CstOpposites_0_8:   x_0_8 + x_8_0 <= 1
 CstOpposites_0_9:   x_0_9 + x_9_0 <= 1
 CstOpposites_0_10:  x_0_10 + x_10_0 <= 1
 CstOpposites_0_11:  x_0_11 + x_11_0 <= 1
 CstOpposites_0_12:  x_0_12 + x_12_0 <= 1
 CstOpposites_0_13:  x_0_13 + x_13_0 <= 1
 CstOpposites_0_14:  x_0_14 + x_14_0 <= 1
 CstOpposites_0_15:  x_0_15 + x_15_0 <= 1
 CstOpposites_1_0:   x_0_1 + x_1_0 <= 1
 CstOpposites_1_2:   x_1_2 + x_2_1 <= 1
 CstOpposites_1_3:   x_1_3 + x_3_1 <= 1
 CstOpposites_1_4:   x_1_4 + x_4_1 <= 1
 CstOpposites_1_5:   x_1_5 + x_5_1 <= 1
 CstOpposites_1_6:   x_1_6 + x_6_1 <= 1
 CstOpposites_1_7:   x_1_7 + x_7_1 <= 1
 CstOpposites_1_8:   x_1_8 + x_8_1 <= 1
 CstOpposites_1_9:   x_1_9 + x_9_1 <= 1
 CstOpposites_1_10:  x_1_10 + x_10_1 <= 1
 CstOpposites_1_11:  x_1_11 + x_11_1 <= 1
 CstOpposites_1_12:  x_1_12 + x_12_1 <= 1
 CstOpposites_1_13:  x_1_13 + x_13_1 <= 1
 CstOpposites_1_14:  x_1_14 + x_14_1 <= 1
 CstOpposites_1_15:  x_1_15 + x_15_1 <= 1
 CstOpposites_2_0:   x_0_2 + x_2_0 <= 1
 CstOpposites_2_1:   x_1_2 + x_2_1 <= 1
 CstOpposites_2_3:   x_2_3 + x_3_2 <= 1
 CstOpposites_2_4:   x_2_4 + x_4_2 <= 1
 CstOpposites_2_5:   x_2_5 + x_5_2 <= 1
 CstOpposites_2_6:   x_2_6 + x_6_2 <= 1
 CstOpposites_2_7:   x_2_7 + x_7_2 <= 1
 CstOpposites_2_8:   x_2_8 + x_8_2 <= 1
 CstOpposites_2_9:   x_2_9 + x_9_2 <= 1
 CstOpposites_2_10:  x_2_10 + x_10_2 <= 1
 CstOpposites_2_11:  x_2_11 + x_11_2 <= 1
 CstOpposites_2_12:  x_2_12 + x_12_2 <= 1
 CstOpposites_2_13:  x_2_13 + x_13_2 <= 1
 CstOpposites_2_14:  x_2_14 + x_14_2 <= 1
 CstOpposites_2_15:  x_2_15 + x_15_2 <= 1
 CstOpposites_3_0:   x_0_3 + x_3_0 <= 1
 CstOpposites_3_1:   x_1_3 + x_3_1 <= 1
 CstOpposites_3_2:   x_2_3 + x_3_2 <= 1
 CstOpposites_3_4:   x_3_4 + x_4_3 <= 1
 CstOpposites_3_5:   x_3_5 + x_5_3 <= 1
 CstOpposites_3_6:   x_3_6 + x_6_3 <= 1
 CstOpposites_3_7:   x_3_7 + x_7_3 <= 1
 CstOpposites_3_8:   x_3_8 + x_8_3 <= 1
 CstOpposites_3_9:   x_3_9 + x_9_3 <= 1
 CstOpposites_3_10:  x_3_10 + x_10_3 <= 1
 CstOpposites_3_11:  x_3_11 + x_11_3 <= 1
 CstOpposites_3_12:  x_3_12 + x_12_3 <= 1
 CstOpposites_3_13:  x_3_13 + x_13_3 <= 1
 CstOpposites_3_14:  x_3_14 + x_14_3 <= 1
 CstOpposites_3_15:  x_3_15 + x_15_3 <= 1
 CstOpposites_4_0:   x_0_4 + x_4_0 <= 1
 CstOpposites_4_1:   x_1_4 + x_4_1 <= 1
 CstOpposites_4_2:   x_2_4 + x_4_2 <= 1
 CstOpposites_4_3:   x_3_4 + x_4_3 <= 1
 CstOpposites_4_5:   x_4_5 + x_5_4 <= 1
 CstOpposites_4_6:   x_4_6 + x_6_4 <= 1
 CstOpposites_4_7:   x_4_7 + x_7_4 <= 1
 CstOpposites_4_8:   x_4_8 + x_8_4 <= 1
 CstOpposites_4_9:   x_4_9 + x_9_4 <= 1
 CstOpposites_4_10:  x_4_10 + x_10_4 <= 1
 CstOpposites_4_11:  x_4_11 + x_11_4 <= 1
 CstOpposites_4_12:  x_4_12 + x_12_4 <= 1
 CstOpposites_4_13:  x_4_13 + x_13_4 <= 1
 CstOpposites_4_14:  x_4_14 + x_14_4 <= 1
 CstOpposites_4_15:  x_4_15 + x_15_4 <= 1
 CstOpposites_5_0:   x_0_5 + x_5_0 <= 1
 CstOpposites_5_1:   x_1_5 + x_5_1 <= 1
 CstOpposites_5_2:   x_2_5 + x_5_2 <= 1
 CstOpposites_5_3:   x_3_5 + x_5_3 <= 1
 CstOpposites_5_4:   x_4_5 + x_5_4 <= 1
 CstOpposites_5_6:   x_5_6 + x_6_5 <= 1
 CstOpposites_5_7:   x_5_7 + x_7_5 <= 1
 CstOpposites_5_8:   x_5_8 + x_8_5 <= 1
 CstOpposites_5_9:   x_5_9 + x_9_5 <= 1
 CstOpposites_5_10:  x_5_10 + x_10_5 <= 1
 CstOpposites_5_11:  x_5_11 + x_11_5 <= 1
 CstOpposites_5_12:  x_5_12 + x_12_5 <= 1
 CstOpposites_5_13:  x_5_13 + x_13_5 <= 1
 CstOpposites_5_14:  x_5_14 + x_14_5 <= 1
 CstOpposites_5_15:  x_5_15 + x_15_5 <= 1
 CstOpposites_6_0:   x_0_6 + x_6_0 <= 1
 CstOpposites_6_1:   x_1_6 + x_6_1 <= 1
 CstOpposites_6_2:   x_2_6 + x_6_2 <= 1
 CstOpposites_6_3:   x_3_6 + x_6_3 <= 1
 CstOpposites_6_4:   x_4_6 + x_6_4 <= 1
 CstOpposites_6_5:   x_5_6 + x_6_5 <= 1
 CstOpposites_6_7:   x_6_7 + x_7_6 <= 1
 CstOpposites_6_8:   x_6_8 + x_8_6 <= 1
 CstOpposites_6_9:   x_6_9 + x_9_6 <= 1
 CstOpposites_6_10:  x_6_10 + x_10_6 <= 1
 CstOpposites_6_11:  x_6_11 + x_11_6 <= 1
 CstOpposites_6_12:  x_6_12 + x_12_6 <= 1
 CstOpposites_6_13:  x_6_13 + x_13_6 <= 1
 CstOpposites_6_14:  x_6_14 + x_14_6 <= 1
 CstOpposites_6_15:  x_6_15 + x_15_6 <= 1
 CstOpposites_7_0:   x_0_7 + x_7_0 <= 1
 CstOpposites_7_1:   x_1_7 + x_7_1 <= 1
 CstOpposites_7_2:   x_2_7 + x_7_2 <= 1
 CstOpposites_7_3:   x_3_7 + x_7_3 <= 1
 CstOpposites_7_4:   x_4_7 + x_7_4 <= 1
 CstOpposites_7_5:   x_5_7 + x_7_5 <= 1
 CstOpposites_7_6:   x_6_7 + x_7_6 <= 1
 CstOpposites_7_8:   x_7_8 + x_8_7 <= 1
 CstOpposites_7_9:   x_7_9 + x_9_7 <= 1
 CstOpposites_7_10:  x_7_10 + x_10_7 <= 1
 CstOpposites_7_11:  x_7_11 + x_11_7 <= 1
 CstOpposites_7_12:  x_7_12 + x_12_7 <= 1
 CstOpposites_7_13:  x_7_13 + x_13_7 <= 1
 CstOpposites_7_14:  x_7_14 + x_14_7 <= 1
 CstOpposites_7_15:  x_7_15 + x_15_7 <= 1
 CstOpposites_8_0:   x_0_8 + x_8_0 <= 1
 CstOpposites_8_1:   x_1_8 + x_8_1 <= 1
 CstOpposites_8_2:   x_2_8 + x_8_2 <= 1
 CstOpposites_8_3:   x_3_8 + x_8_3 <= 1
 CstOpposites_8_4:   x_4_8 + x_8_4 <= 1
 CstOpposites_8_5:   x_5_8 + x_8_5 <= 1
 CstOpposites_8_6:   x_6_8 + x_8_6 <= 1
 CstOpposites_8_7:   x_7_8 + x_8_7 <= 1
 CstOpposites_8_9:   x_8_9 + x_9_8 <= 1
 CstOpposites_8_10:  x_8_10 + x_10_8 <= 1
 CstOpposites_8_11:  x_8_11 + x_11_8 <= 1
 CstOpposites_8_12:  x_8_12 + x_12_8 <= 1
 CstOpposites_8_13:  x_8_13 + x_13_8 <= 1
 CstOpposites_8_14:  x_8_14 + x_14_8 <= 1
 CstOpposites_8_15:  x_8_15 + x_15_8 <= 1
 CstOpposites_9_0:   x_0_9 + x_9_0 <= 1
 CstOpposites_9_1:   x_1_9 + x_9_1 <= 1
 CstOpposites_9_2:   x_2_9 + x_9_2 <= 1
 CstOpposites_9_3:   x_3_9 + x_9_3 <= 1
 CstOpposites_9_4:   x_4_9 + x_9_4 <= 1
 CstOpposites_9_5:   x_5_9 + x_9_5 <= 1
 CstOpposites_9_6:   x_6_9 + x_9_6 <= 1
 CstOpposites_9_7:   x_7_9 + x_9_7 <= 1
 CstOpposites_9_8:   x_8_9 + x_9_8 <= 1
 CstOpposites_9_10:  x_9_10 + x_10_9 <= 1
 CstOpposites_9_11:  x_9_11 + x_11_9 <= 1
 CstOpposites_9_12:  x_9_12 + x_12_9 <= 1
 CstOpposites_9_13:  x_9_13 + x_13_9 <= 1
 CstOpposites_9_14:  x_9_14 + x_14_9 <= 1
 CstOpposites_9_15:  x_9_15 + x_15_9 <= 1
 CstOpposites_10_0:  x_0_10 + x_10_0 <= 1
 CstOpposites_10_1:  x_1_10 + x_10_1 <= 1
 CstOpposites_10_2:  x_2_10 + x_10_2 <= 1
 CstOpposites_10_3:  x_3_10 + x_10_3 <= 1
 CstOpposites_10_4:  x_4_10 + x_10_4 <= 1
 CstOpposites_10_5:  x_5_10 + x_10_5 <= 1
 CstOpposites_10_6:  x_6_10 + x_10_6 <= 1
 CstOpposites_10_7:  x_7_10 + x_10_7 <= 1
 CstOpposites_10_8:  x_8_10 + x_10_8 <= 1
 CstOpposites_10_9:  x_9_10 + x_10_9 <= 1
 CstOpposites_10_11: x_10_11 + x_11_10 <= 1
 CstOpposites_10_12: x_10_12 + x_12_10 <= 1
 CstOpposites_10_13: x_10_13 + x_13_10 <= 1
 CstOpposites_10_14: x_10_14 + x_14_10 <= 1
 CstOpposites_10_15: x_10_15 + x_15_10 <= 1
 CstOpposites_11_0:  x_0_11 + x_11_0 <= 1
 CstOpposites_11_1:  x_1_11 + x_11_1 <= 1
 CstOpposites_11_2:  x_2_11 + x_11_2 <= 1
 CstOpposites_11_3:  x_3_11 + x_11_3 <= 1
 CstOpposites_11_4:  x_4_11 + x_11_4 <= 1
 CstOpposites_11_5:  x_5_11 + x_11_5 <= 1
 CstOpposites_11_6:  x_6_11 + x_11_6 <= 1
 CstOpposites_11_7:  x_7_11 + x_11_7 <= 1
 CstOpposites_11_8:  x_8_11 + x_11_8 <= 1
 CstOpposites_11_9:  x_9_11 + x_11_9 <= 1
 CstOpposites_11_10: x_10_11 + x_11_10 <= 1
 CstOpposites_11_12: x_11_12 + x_12_11 <= 1
 CstOpposites_11_13: x_11_13 + x_13_11 <= 1
 CstOpposites_11_14: x_11_14 + x_14_11 <= 1
 CstOpposites_11_15: x_11_15 + x_15_11 <= 1
 CstOpposites_12_0:  x_0_12 + x_12_0 <= 1
 CstOpposites_12_1:  x_1_12 + x_12_1 <= 1
 CstOpposites_12_2:  x_2_12 + x_12_2 <= 1
 CstOpposites_12_3:  x_3_12 + x_12_3 <= 1
 CstOpposites_12_4:  x_4_12 + x_12_4 <= 1
 CstOpposites_12_5:  x_5_12 + x_12_5 <= 1
 CstOpposites_12_6:  x_6_12 + x_12_6 <= 1
 CstOpposites_12_7:  x_7_12 + x_12_7 <= 1
 CstOpposites_12_8:  x_8_12 + x_12_8 <= 1
 CstOpposites_12_9:  x_9_12 + x_12_9 <= 1
 CstOpposites_12_10: x_10_12 + x_12_10 <= 1
 CstOpposites_12_11: x_11_12 + x_12_11 <= 1
 CstOpposites_12_13: x_12_13 + x_13_12 <= 1
 CstOpposites_12_14: x_12_14 + x_14_12 <= 1
 CstOpposites_12_15: x_12_15 + x_15_12 <= 1
 CstOpposites_13_0:  x_0_13 + x_13_0 <= 1
 CstOpposites_13_1:  x_1_13 + x_13_1 <= 1
 CstOpposites_13_2:  x_2_13 + x_13_2 <= 1
 CstOpposites_13_3:  x_3_13 + x_13_3 <= 1
 CstOpposites_13_4:  x_4_13 + x_13_4 <= 1
 CstOpposites_13_5:  x_5_13 + x_13_5 <= 1
 CstOpposites_13_6:  x_6_13 + x_13_6 <= 1
 CstOpposites_13_7:  x_7_13 + x_13_7 <= 1
 CstOpposites_13_8:  x_8_13 + x_13_8 <= 1
 CstOpposites_13_9:  x_9_13 + x_13_9 <= 1
 CstOpposites_13_10: x_10_13 + x_13_10 <= 1
 CstOpposites_13_11: x_11_13 + x_13_11 <= 1
 CstOpposites_13_12: x_12_13 + x_13_12 <= 1
 CstOpposites_13_14: x_13_14 + x_14_13 <= 1
 CstOpposites_13_15: x_13_15 + x_15_13 <= 1
 CstOpposites_14_0:  x_0_14 + x_14_0 <= 1
 CstOpposites_14_1:  x_1_14 + x_14_1 <= 1
 CstOpposites_14_2:  x_2_14 + x_14_2 <= 1
 CstOpposites_14_3:  x_3_14 + x_14_3 <= 1
 CstOpposites_14_4:  x_4_14 + x_14_4 <= 1
 CstOpposites_14_5:  x_5_14 + x_14_5 <= 1
 CstOpposites_14_6:  x_6_14 + x_14_6 <= 1
 CstOpposites_14_7:  x_7_14 + x_14_7 <= 1
 CstOpposites_14_8:  x_8_14 + x_14_8 <= 1
 CstOpposites_14_9:  x_9_14 + x_14_9 <= 1
 CstOpposites_14_10: x_10_14 + x_14_10 <= 1
 CstOpposites_14_11: x_11_14 + x_14_11 <= 1
 CstOpposites_14_12: x_12_14 + x_14_12 <= 1
 CstOpposites_14_13: x_13_14 + x_14_13 <= 1
 CstOpposites_14_15: x_14_15 + x_15_14 <= 1
 CstOpposites_15_0:  x_0_15 + x_15_0 <= 1
 CstOpposites_15_1:  x_1_15 + x_15_1 <= 1
 CstOpposites_15_2:  x_2_15 + x_15_2 <= 1
 CstOpposites_15_3:  x_3_15 + x_15_3 <= 1
 CstOpposites_15_4:  x_4_15 + x_15_4 <= 1
 CstOpposites_15_5:  x_5_15 + x_15_5 <= 1
 CstOpposites_15_6:  x_6_15 + x_15_6 <= 1
 CstOpposites_15_7:  x_7_15 + x_15_7 <= 1
 CstOpposites_15_8:  x_8_15 + x_15_8 <= 1
 CstOpposites_15_9:  x_9_15 + x_15_9 <= 1
 CstOpposites_15_10: x_10_15 + x_15_10 <= 1
 CstOpposites_15_11: x_11_15 + x_15_11 <= 1
 CstOpposites_15_12: x_12_15 + x_15_12 <= 1
 CstOpposites_15_13: x_13_15 + x_15_13 <= 1
 CstOpposites_15_14: x_14_15 + x_15_14 <= 1
Bounds
 0 <= x_0_1 <= 1
 0 <= x_0_2 <= 1
 0 <= x_0_3 <= 1
 0 <= x_0_4 <= 1
 0 <= x_0_5 <= 1
 0 <= x_0_6 <= 1
 0 <= x_0_7 <= 1
 0 <= x_0_8 <= 1
 0 <= x_0_9 <= 1
 0 <= x_0_10 <= 1
 0 <= x_0_11 <= 1
 0 <= x_0_12 <= 1
 0 <= x_0_13 <= 1
 0 <= x_0_14 <= 1
 0 <= x_0_15 <= 1
 0 <= x_1_0 <= 1
 0 <= x_2_0 <= 1
 0 <= x_3_0 <= 1
 0 <= x_4_0 <= 1
 0 <= x_5_0 <= 1
 0 <= x_6_0 <= 1
 0 <= x_7_0 <= 1
 0 <= x_8_0 <= 1
 0 <= x_9_0 <= 1
 0 <= x_10_0 <= 1
 0 <= x_11_0 <= 1
 0 <= x_12_0 <= 1
 0 <= x_13_0 <= 1
 0 <= x_14_0 <= 1
 0 <= x_15_0 <= 1
 0 <= x_1_2 <= 1
 0 <= x_1_3 <= 1
 0 <= x_1_4 <= 1
 0 <= x_1_5 <= 1
 0 <= x_1_6 <= 1
 0 <= x_1_7 <= 1
 0 <= x_1_8 <= 1
 0 <= x_1_9 <= 1
 0 <= x_1_10 <= 1
 0 <= x_1_11 <= 1
 0 <= x_1_12 <= 1
 0 <= x_1_13 <= 1
 0 <= x_1_14 <= 1
 0 <= x_1_15 <= 1
 0 <= x_2_1 <= 1
 0 <= x_2_3 <= 1
 0 <= x_2_4 <= 1
 0 <= x_2_5 <= 1
 0 <= x_2_6 <= 1
 0 <= x_2_7 <= 1
 0 <= x_2_8 <= 1
 0 <= x_2_9 <= 1
 0 <= x_2_10 <= 1
 0 <= x_2_11 <= 1
 0 <= x_2_12 <= 1
 0 <= x_2_13 <= 1
 0 <= x_2_14 <= 1
 0 <= x_2_15 <= 1
 0 <= x_3_1 <= 1
 0 <= x_3_2 <= 1
 0 <= x_3_4 <= 1
 0 <= x_3_5 <= 1
 0 <= x_3_6 <= 1
 0 <= x_3_7 <= 1
 0 <= x_3_8 <= 1
 0 <= x_3_9 <= 1
 0 <= x_3_10 <= 1
 0 <= x_3_11 <= 1
 0 <= x_3_12 <= 1
 0 <= x_3_13 <= 1
 0 <= x_3_14 <= 1
 0 <= x_3_15 <= 1
 0 <= x_4_1 <= 1
 0 <= x_4_2 <= 1
 0 <= x_4_3 <= 1
 0 <= x_4_5 <= 1
 0 <= x_4_6 <= 1
 0 <= x_4_7 <= 1
 0 <= x_4_8 <= 1
 0 <= x_4_9 <= 1
 0 <= x_4_10 <= 1
 0 <= x_4_11 <= 1
 0 <= x_4_12 <= 1
 0 <= x_4_13 <= 1
 0 <= x_4_14 <= 1
 0 <= x_4_15 <= 1
 0 <= x_5_1 <= 1
 0 <= x_5_2 <= 1
 0 <= x_5_3 <= 1
 0 <= x_5_4 <= 1
 0 <= x_5_6 <= 1
 0 <= x_5_7 <= 1
 0 <= x_5_8 <= 1
 0 <= x_5_9 <= 1
 0 <= x_5_10 <= 1
 0 <= x_5_11 <= 1
 0 <= x_5_12 <= 1
 0 <= x_5_13 <= 1
 0 <= x_5_14 <= 1
 0 <= x_5_15 <= 1
 0 <= x_6_1 <= 1
 0 <= x_6_2 <= 1
 0 <= x_6_3 <= 1
 0 <= x_6_4 <= 1
 0 <= x_6_5 <= 1
 0 <= x_6_7 <= 1
 0 <= x_6_8 <= 1
 0 <= x_6_9 <= 1
 0 <= x_6_10 <= 1
 0 <= x_6_11 <= 1
 0 <= x_6_12 <= 1
 0 <= x_6_13 <= 1
 0 <= x_6_14 <= 1
 0 <= x_6_15 <= 1
 0 <= x_7_1 <= 1
 0 <= x_7_2 <= 1
 0 <= x_7_3 <= 1
 0 <= x_7_4 <= 1
 0 <= x_7_5 <= 1
 0 <= x_7_6 <= 1
 0 <= x_7_8 <= 1
 0 <= x_7_9 <= 1
 0 <= x_7_10 <= 1
 0 <= x_7_11 <= 1
 0 <= x_7_12 <= 1
 0 <= x_7_13 <= 1
 0 <= x_7_14 <= 1
 0 <= x_7_15 <= 1
 0 <= x_8_1 <= 1
 0 <= x_8_2 <= 1
 0 <= x_8_3 <= 1
 0 <= x_8_4 <= 1
 0 <= x_8_5 <= 1
 0 <= x_8_6 <= 1
 0 <= x_8_7 <= 1
 0 <= x_8_9 <= 1
 0 <= x_8_10 <= 1
 0 <= x_8_11 <= 1
 0 <= x_8_12 <= 1
 0 <= x_8_13 <= 1
 0 <= x_8_14 <= 1
 0 <= x_8_15 <= 1
 0 <= x_9_1 <= 1
 0 <= x_9_2 <= 1
 0 <= x_9_3 <= 1
 0 <= x_9_4 <= 1
 0 <= x_9_5 <= 1
 0 <= x_9_6 <= 1
 0 <= x_9_7 <= 1
 0 <= x_9_8 <= 1
 0 <= x_9_10 <= 1
 0 <= x_9_11 <= 1
 0 <= x_9_12 <= 1
 0 <= x_9_13 <= 1
 0 <= x_9_14 <= 1
 0 <= x_9_15 <= 1
 0 <= x_10_1 <= 1
 0 <= x_10_2 <= 1
 0 <= x_10_3 <= 1
 0 <= x_10_4 <= 1
 0 <= x_10_5 <= 1
 0 <= x_10_6 <= 1
 0 <= x_10_7 <= 1
 0 <= x_10_8 <= 1
 0 <= x_10_9 <= 1
 0 <= x_10_11 <= 1
 0 <= x_10_12 <= 1
 0 <= x_10_13 <= 1
 0 <= x_10_14 <= 1
 0 <= x_10_15 <= 1
 0 <= x_11_1 <= 1
 0 <= x_11_2 <= 1
 0 <= x_11_3 <= 1
 0 <= x_11_4 <= 1
 0 <= x_11_5 <= 1
 0 <= x_11_6 <= 1
 0 <= x_11_7 <= 1
 0 <= x_11_8 <= 1
 0 <= x_11_9 <= 1
 0 <= x_11_10 <= 1
 0 <= x_11_12 <= 1
 0 <= x_11_13 <= 1
 0 <= x_11_14 <= 1
 0 <= x_11_15 <= 1
 0 <= x_12_1 <= 1
 0 <= x_12_2 <= 1
 0 <= x_12_3 <= 1
 0 <= x_12_4 <= 1
 0 <= x_12_5 <= 1
 0 <= x_12_6 <= 1
 0 <= x_12_7 <= 1
 0 <= x_12_8 <= 1
 0 <= x_12_9 <= 1
 0 <= x_12_10 <= 1
 0 <= x_12_11 <= 1
 0 <= x_12_13 <= 1
 0 <= x_12_14 <= 1
 0 <= x_12_15 <= 1
 0 <= x_13_1 <= 1
 0 <= x_13_2 <= 1
 0 <= x_13_3 <= 1
 0 <= x_13_4 <= 1
 0 <= x_13_5 <= 1
 0 <= x_13_6 <= 1
 0 <= x_13_7 <= 1
 0 <= x_13_8 <= 1
 0 <= x_13_9 <= 1
 0 <= x_13_10 <= 1
 0 <= x_13_11 <= 1
 0 <= x_13_12 <= 1
 0 <= x_13_14 <= 1
 0 <= x_13_15 <= 1
 0 <= x_14_1 <= 1
 0 <= x_14_2 <= 1
 0 <= x_14_3 <= 1
 0 <= x_14_4 <= 1
 0 <= x_14_5 <= 1
 0 <= x_14_6 <= 1
 0 <= x_14_7 <= 1
 0 <= x_14_8 <= 1
 0 <= x_14_9 <= 1
 0 <= x_14_10 <= 1
 0 <= x_14_11 <= 1
 0 <= x_14_12 <= 1
 0 <= x_14_13 <= 1
 0 <= x_14_15 <= 1
 0 <= x_15_1 <= 1
 0 <= x_15_2 <= 1
 0 <= x_15_3 <= 1
 0 <= x_15_4 <= 1
 0 <= x_15_5 <= 1
 0 <= x_15_6 <= 1
 0 <= x_15_7 <= 1
 0 <= x_15_8 <= 1
 0 <= x_15_9 <= 1
 0 <= x_15_10 <= 1
 0 <= x_15_11 <= 1
 0 <= x_15_12 <= 1
 0 <= x_15_13 <= 1
 0 <= x_15_14 <= 1
Binaries
 x_0_1  x_0_2  x_0_3  x_0_4  x_0_5  x_0_6  x_0_7  x_0_8  x_0_9  x_0_10  x_0_11 
 x_0_12  x_0_13  x_0_14  x_0_15  x_1_0  x_2_0  x_3_0  x_4_0  x_5_0  x_6_0 
 x_7_0  x_8_0  x_9_0  x_10_0  x_11_0  x_12_0  x_13_0  x_14_0  x_15_0  x_1_2 
 x_1_3  x_1_4  x_1_5  x_1_6  x_1_7  x_1_8  x_1_9  x_1_10  x_1_11  x_1_12 
 x_1_13  x_1_14  x_1_15  x_2_1  x_2_3  x_2_4  x_2_5  x_2_6  x_2_7  x_2_8 
 x_2_9  x_2_10  x_2_11  x_2_12  x_2_13  x_2_14  x_2_15  x_3_1  x_3_2  x_3_4 
 x_3_5  x_3_6  x_3_7  x_3_8  x_3_9  x_3_10  x_3_11  x_3_12  x_3_13  x_3_14 
 x_3_15  x_4_1  x_4_2  x_4_3  x_4_5  x_4_6  x_4_7  x_4_8  x_4_9  x_4_10 
 x_4_11  x_4_12  x_4_13  x_4_14  x_4_15  x_5_1  x_5_2  x_5_3  x_5_4  x_5_6 
 x_5_7  x_5_8  x_5_9  x_5_10  x_5_11  x_5_12  x_5_13  x_5_14  x_5_15  x_6_1 
 x_6_2  x_6_3  x_6_4  x_6_5  x_6_7  x_6_8  x_6_9  x_6_10  x_6_11  x_6_12 
 x_6_13  x_6_14  x_6_15  x_7_1  x_7_2  x_7_3  x_7_4  x_7_5  x_7_6  x_7_8 
 x_7_9  x_7_10  x_7_11  x_7_12  x_7_13  x_7_14  x_7_15  x_8_1  x_8_2  x_8_3 
 x_8_4  x_8_5  x_8_6  x_8_7  x_8_9  x_8_10  x_8_11  x_8_12  x_8_13  x_8_14 
 x_8_15  x_9_1  x_9_2  x_9_3  x_9_4  x_9_5  x_9_6  x_9_7  x_9_8  x_9_10 
 x_9_11  x_9_12  x_9_13  x_9_14  x_9_15  x_10_1  x_10_2  x_10_3  x_10_4 
 x_10_5  x_10_6  x_10_7  x_10_8  x_10_9  x_10_11  x_10_12  x_10_13  x_10_14 
 x_10_15  x_11_1  x_11_2  x_11_3  x_11_4  x_11_5  x_11_6  x_11_7  x_11_8 
 x_11_9  x_11_10  x_11_12  x_11_13  x_11_14  x_11_15  x_12_1  x_12_2  x_12_3 
 x_12_4  x_12_5  x_12_6  x_12_7  x_12_8  x_12_9  x_12_10  x_12_11  x_12_13 
 x_12_14  x_12_15  x_13_1  x_13_2  x_13_3  x_13_4  x_13_5  x_13_6  x_13_7 
 x_13_8  x_13_9  x_13_10  x_13_11  x_13_12  x_13_14  x_13_15  x_14_1  x_14_2 
 x_14_3  x_14_4  x_14_5  x_14_6  x_14_7  x_14_8  x_14_9  x_14_10  x_14_11 
 x_14_12  x_14_13  x_14_15  x_15_1  x_15_2  x_15_3  x_15_4  x_15_5  x_15_6 
 x_15_7  x_15_8  x_15_9  x_15_10  x_15_11  x_15_12  x_15_13  x_15_14 
End
